(set-logic QF_S)
(set-option :produce-models true)

(declare-fun s2764 () String)
(declare-fun s2755 () String)
(declare-fun s2771 () String)
(declare-fun s2807 () String)
(declare-fun s2758 () String)
(declare-fun s2761 () String)
(declare-fun s2739 () String)
(declare-fun s2767 () String)

(assert (= s2758 "k" ))
(assert (= s2761 "g" ))
(assert (= s2755 "p" ))
(assert (not (= s2739 s2761 )))
(assert (= s2807 "q" ))
(assert (not (= s2739 s2764 )))
(assert (not (= s2739 s2807 )))
(assert (= s2739 s2771 ))
(assert (not (= s2739 s2755 )))
(assert (= s2767 "l" ))
(assert (not (= s2739 s2767 )))
(assert (= s2771 "h" ))
(assert (= s2764 "r" ))
(assert (not (= s2739 s2758 )))


(check-sat)
(get-model)
